NAME : n100w120.002.540.tour
COMMENT : Length = 540
COMMENT : Found by LKH [Keld Helsgaun] Tue May  2 05:19:09 2017
TYPE : TOUR
DIMENSION : 101
TOUR_SECTION
1
42
25
7
57
38
47
58
93
92
22
88
80
71
77
31
94
76
52
11
66
85
8
5
53
30
6
61
35
15
56
12
55
86
23
70
91
16
19
72
74
98
36
24
29
75
83
33
64
59
99
4
18
97
14
9
79
60
81
87
62
100
21
63
13
89
40
43
96
101
68
82
37
48
67
46
2
54
44
51
27
49
95
50
65
10
45
73
69
20
78
90
28
26
17
32
41
3
39
84
34
-1
EOF
